(set-option :produce-models true)
(set-logic QF_UFLIA)
(declare-sort U 0)
(declare-fun f (Int) U)
(declare-fun g (U) Int)
(declare-fun x () U)
(assert (= x (f 0)))
(assert (= 1 (g x)))
(check-sat)
(get-model)
(get-value ((g (f 2))))
(get-model)
(exit)

